(set-option :produce-models true)
(set-logic QF_UF)
(declare-fun p25() Bool)
(declare-fun p11() Bool)
(declare-fun p10() Bool)
(declare-fun p21() Bool)
(declare-fun p7() Bool)
(declare-fun p23() Bool)
(declare-fun p1() Bool)
(declare-fun p8() Bool)
(declare-fun p5() Bool)
(declare-fun p15() Bool)
(declare-fun p20() Bool)
(declare-fun p17() Bool)
(declare-fun p9() Bool)
(declare-fun p3() Bool)
(declare-fun p4() Bool)
(declare-fun p29() Bool)
(declare-fun p27() Bool)
(declare-fun p6() Bool)
(declare-fun p28() Bool)
(declare-fun p24() Bool)
(declare-fun p13() Bool)
(declare-fun p12() Bool)
(declare-fun p16() Bool)
(declare-fun p22() Bool)
(declare-fun p14() Bool)
(declare-fun p18() Bool)
(declare-fun p0() Bool)
(declare-fun p2() Bool)
(declare-fun p19() Bool)
(declare-fun p26() Bool)
(assert
(and (or (not p25) p11 (not p11)) (or p10 (not p21) (not p7)) (or (not p25) p23 (not p23)) (or p1 p8 (not p5)) (or (not p15) (not p20) (not p17)) (or (not p9) p3 (not p4)) (or p20 (not p3) (not p29)) (or (not p23) (not p25) p21) (or (not p5) p8 p27) (or p27 p6 (not p28)) (or (not p4) (not p7) p6) (or (not p8) (not p24) p10) (or (not p11) (not p28) p13) (or (not p12) (not p4) p23) (or p16 (not p22) (not p8)) (or p14 p5 (not p20)) (or p11 (not p22) p11) (or p11 (not p13) (not p29)) (or (not p10) (not p11) p21) (or p28 p15 p24) (or (not p16) p22 p18) (or p14 p13 p17) (or p6 (not p29) p14) (or p25 p21 (not p12)) (or (not p10) p1 (not p25)) (or p17 p0 p1) (or (not p2) (not p19) (not p15)) (or p27 (not p29) p25) (or (not p15) p29 p21) (or (not p28) (not p24) p11) (or (not p5) (not p29) (not p26)) (or (not p25) p17 (not p8)) (or p16 p6 p25) (or (not p10) (not p19) (not p19)) (or (not p6) p22 (not p0)) (or (not p19) p13 p19) (or p16 p19 p12) (or p17 p26 p1) (or (not p5) p18 (not p18)) (or (not p10) (not p22) (not p6)) (or p8 p25 p17) (or (not p28) p15 p0) (or p21 (not p19) (not p12)) (or (not p16) p15 (not p13)) (or (not p3) (not p3) p20) (or (not p17) p20 p0) (or p13 (not p13) p9) (or (not p10) p25 (not p13)) (or (not p1) p10 p20) (or p16 (not p6) (not p5)) (or p5 p28 p7) (or (not p14) p20 p21) (or (not p11) (not p23) p8) (or (not p26) (not p13) p10) (or (not p24) (not p14) p26) (or p6 p11 p17) (or (not p0) (not p4) (not p2)) (or p13 p3 p7) (or (not p7) (not p24) p9) (or p19 (not p5) p26) (or (not p9) (not p5) p24) (or (not p11) p7 (not p29)) (or p8 p3 p15) (or (not p20) (not p6) (not p28)) (or (not p22) (not p29) p6) (or p15 p1 (not p14)) (or (not p22) (not p16) p9) (or p19 p4 p0) (or p15 p29 p23) (or p18 (not p12) (not p25)) (or (not p24) (not p15) (not p19)) (or p11 (not p24) (not p20)) (or p10 (not p0) (not p22)) (or (not p16) (not p5) p25) (or p4 p17 (not p22)) (or p12 p4 (not p14)) (or p14 (not p15) p7) (or (not p24) p21 (not p16)) (or (not p28) p27 p22) (or (not p5) p7 (not p14)) (or (not p8) (not p4) (not p4)) (or p27 p16 p0) (or (not p1) (not p24) p28) (or (not p27) (not p3) (not p29)) (or p21 p0 (not p20)) (or p5 p8 p13) (or p17 (not p8) p0) (or p26 p24 (not p0)) (or (not p23) p6 (not p26)) (or (not p9) (not p24) p16) (or (not p24) (not p28) p15) (or p7 (not p26) (not p8)) (or p8 p27 (not p23)) (or (not p1) p29 (not p26)) (or p28 p10 p3) (or p6 p14 (not p7)) (or p0 p23 (not p22)) (or p21 (not p15) (not p5)) (or (not p21) p20 (not p2)) (or p27 (not p9) (not p4)) (or p29 p18 (not p14)) (or (not p14) (not p23) (not p23)) (or (not p20) (not p14) (not p27)) (or (not p7) (not p16) (not p29)) (or p2 p24 p2) (or p8 p15 (not p21)) (or p13 p22 (not p13)) (or (not p25) (not p20) (not p10)) (or (not p28) p18 (not p4)) (or (not p23) p11 (not p24)) (or (not p1) p28 (not p19)) (or (not p6) p6 (not p19)) (or (not p18) (not p29) p25) (or p8 (not p14) p4) (or (not p20) p20 (not p21)) (or (not p11) p25 p25) (or (not p3) p18 (not p0)) (or p25 (not p0) p27) (or p3 p1 p28) (or p26 p5 (not p23)) (or p6 (not p23) p20) (or (not p28) (not p10) (not p6)) (or p14 (not p11) p4) (or (not p21) p3 (not p11)) (or p25 (not p25) (not p15)) (or p3 p22 p25) (or (not p10) (not p10) (not p5)) (or (not p29) (not p10) (not p5)))
)
(check-sat)
(get-model)
